proyfinal/src/viki/013/experimentInOfficeAgust.take6.output/578e8eb2-cceb-4afc-94ce-d2100094cb4f.als.dat
{'cnf.clauses': '118081',
 'cnf.totvars': '69608',
 'conflict literals': '13',
 'conflicts': '10',
 'decisions': '2610',
 'memused.mb': '18.27',
 'outcome': 'UNSAT',
 'propagations': '22133',
 'restarts': '1',
 'solver.msecs': 32,
 'task.msecs': 74}
