proyfinal/src/viki/013/experimentInOfficeAgust.take6.output/578e8eb2-cceb-4afc-94ce-d2100094cb4f.als.out
Reading from standard input... Use '--help' for help.
============================[ Problem Statistics ]=============================
|                                                                             |
|  Number of variables:         69608                                         |
|  Number of clauses:          118081                                         |
|  Parse time:                   0.02 s                                       |
|                                                                             |
============================[ Search Statistics ]==============================
| Conflicts |          ORIGINAL         |          LEARNT          | Progress |
|           |    Vars  Clauses Literals |    Limit  Clauses Lit/Cl |          |
===============================================================================
===============================================================================
restarts              : 1
conflicts             : 10             (308 /sec)
decisions             : 2610           (0.00 % random) (80439 /sec)
propagations          : 22133          (682128 /sec)
conflict literals     : 13             (0.00 % deleted)
Memory used           : 18.27 MB
CPU time              : 0.032447 s

UNSATISFIABLE
